Route #1: 1 15 21 11 22 26 9 3 37 1 
Route #2: 1 1 13 2 19 31 14 10 1 
Route #3: 1 28 32 16 6 34 30 35 1 
Route #4: 1 20 7 17 29 12 5 27 25 1 
Route #5: 1 23 33 18 4 8 24 1 
Route #6: 1 36 1 

Cost 1112
Time 0.2259


 * Another infos *

 Iterations: 38 Time: 0.2259 sec - 0.0038 min - 0.0001 horas
0.0000 h 0.0038 min
Problem dimension: 38
